100
1000
250
0 0
34 26
34 26
34 26
34 26
34 26
34 26
34 26
34 26
34 26
34 26
34 26
34 26
34 26
34 26
34 26
34 26
34 26
34 26
34 26
34 26
34 26
34 26
34 26
34 26
34 26
-28 20
-28 20
-28 20
-28 20
-28 20
-28 20
-28 20
-28 20
-28 20
-28 20
-28 20
-28 20
-28 20
-28 20
-28 20
-28 20
-28 20
-28 20
-28 20
-28 20
-28 20
-28 20
-28 20
-28 20
-28 20
-19 -37
-19 -37
-19 -37
-19 -37
-19 -37
-19 -37
-19 -37
-19 -37
-19 -37
-19 -37
-19 -37
-19 -37
-19 -37
-19 -37
-19 -37
-19 -37
-19 -37
-19 -37
-19 -37
-19 -37
-19 -37
-19 -37
-19 -37
-19 -37
-19 -37
-16 18
-16 18
-16 18
-16 18
-16 18
-16 18
-16 18
-16 18
-16 18
-16 18
-16 18
-16 18
-16 18
-16 18
-16 18
-16 18
-16 18
-16 18
-16 18
-16 18
-16 18
-16 18
-16 18
-16 18
-16 18
-19 24
-19 24
-19 24
-19 24
-19 24
-19 24
-19 24
-19 24
-19 24
-19 24
-19 24
-19 24
-19 24
-19 24
-19 24
-19 24
-19 24
-19 24
-19 24
-19 24
-19 24
-19 24
-19 24
-19 24
-19 24
32 -19
-32 23
-1 10
-19 4
-11 -34
33 -4
17 -17
-28 15
27 -8
-36 33
12 -33
-13 -40
-13 -25
34 -40
-31 -29
-10 -10
17 7
34 -26
-15 14
19 -4
25 26
4 18
32 26
-16 16
39 18
32 -19
-32 23
-1 10
-19 4
-11 -34
33 -4
17 -17
-28 15
27 -8
-36 33
12 -33
-13 -40
-13 -25
34 -40
-31 -29
-10 -10
17 7
34 -26
-15 14
19 -4
25 26
4 18
32 26
-16 16
39 18
32 -19
-32 23
-1 10
-19 4
-11 -34
33 -4
17 -17
-28 15
27 -8
-36 33
12 -33
-13 -40
-13 -25
34 -40
-31 -29
-10 -10
17 7
34 -26
-15 14
19 -4
25 26
4 18
32 26
-16 16
39 18
32 -19
-32 23
-1 10
-19 4
-11 -34
33 -4
17 -17
-28 15
27 -8
-36 33
12 -33
-13 -40
-13 -25
34 -40
-31 -29
-10 -10
17 7
34 -26
-15 14
19 -4
25 26
4 18
32 26
-16 16
39 18
32 -19
-32 23
-1 10
-19 4
-11 -34
33 -4
17 -17
-28 15
27 -8
-36 33
12 -33
-13 -40
-13 -25
34 -40
-31 -29
-10 -10
17 7
34 -26
-15 14
19 -4
25 26
4 18
32 26
-16 16
39 18
0 0 
52
60
55
55
57
60
53
54
54
52
56
55
52
56
54
57
59
53
55
52
51
54
55
59
54
56
57
55
57
60
53
57
59
59
52
59
51
60
53
59
54
53
56
56
55
55
56
60
55
56
57
59
60
52
52
51
55
59
53
56
56
56
59
57
51
55
54
56
56
56
59
59
60
55
54
59
57
60
52
51
54
52
56
55
59
57
56
56
60
57
59
56
55
53
54
56
57
59
52
56
56
56
59
59
57
56
60
54
51
55
56
52
55
54
51
59
59
56
54
55
54
51
54
53
54
52
60
55
55
57
60
53
54
54
52
56
55
52
56
54
57
59
53
55
52
51
54
55
59
54
56
57
55
57
60
53
57
59
59
52
59
51
60
53
59
54
53
56
56
55
55
56
60
55
56
57
59
60
52
52
51
55
59
53
56
56
56
59
57
51
55
54
56
56
56
59
59
60
55
54
59
57
60
52
51
54
52
56
55
59
57
56
56
60
57
59
56
55
53
54
56
57
59
52
56
56
56
59
59
57
56
60
54
51
55
56
52
55
54
51
59
59
56
54
55
54
51
54
53
54
